(define-fun
  j0
  ((x Int)) Int x)
(define-fun
  h3
  ((x Int)) Int (* x x))
(define-fun
  h2
  ((x Int)) Int (+ 1 (* (+ 2 x) x)))
(define-fun
  h1
  ((x Int) (y Int)) Int (* y y))
(define-fun
  g0
  ((x Int) (y Int)) Int (+ 1 y))
(define-fun
  f3
  ((x Int)) Int (* (* x x) x))
(define-fun-rec
  u3
  ((x Int) (y Int)) Int (ite (<= x 0) y (f3 (u3 (- x 1) y))))
(define-fun
  v3
  ((x Int)) Int (u3 2 (h3 x)))
(define-fun
  f2
  ((x Int)) Int (* (* x x) x))
(define-fun-rec
  u2
  ((x Int) (y Int)) Int (ite (<= x 0) y (f2 (u2 (- x 1) y))))
(define-fun
  v2
  ((x Int)) Int (u2 2 (h2 x)))
(define-fun
  fast
  ((x Int)) Int (+ (v2 x) (v3 x)))
(define-fun
  f1
  ((x Int)) Int (* (* x x) x))
(define-fun-rec
  u1
  ((x Int) (y Int)) Int (ite (<= x 0) y (f1 (u1 (- x 1) y))))
(define-fun
  v1
  ((x Int) (y Int)) Int (u1 2 (h1 x y)))
(define-fun
  f0
  ((x Int) (y Int)) Int (+ (v1 x y) x))
(define-funs-rec
  ((u0
    ((x Int) (y Int) (z Int)) Int)
   (v0
    ((x Int) (y Int) (z Int)) Int))
  ((ite (<= x 0) y (f0 (u0 (- x 1) y z) (v0 (- x 1) y z)))
   (ite (<= x 0) z (g0 (u0 (- x 1) y z) (v0 (- x 1) y z)))))
(define-fun
  w0
  ((x Int)) Int (u0 2 0 x))
(assert-not
  (forall ((c Int)) (or (not (>= c 0)) (= (w0 c) (fast c)))))
